
-3.6
-3.48
-3.42
-3.32
-3.22
-3.12
-3.08
-3.04
-3.0
-2.94
-2.94
-2.86
-2.86
-2.8
-2.78
-2.78
-2.78
-2.76
-2.72
-2.68
-2.68
-2.68
-2.68
-2.68
-2.68
-2.68
-2.66
-2.66
-2.66
-2.66
-2.66
-2.66
-2.66
-2.66